NAME : random_10
COMMENT : 30 random nodes
TYPE : TSP
DIMENSION : 30
EDGE_WEIGHT_TYPE : EUC_2D
NODE_COORD_SECTION
1 138 935
2 700 291
3 793 113
4 744 548
5 777 475
6 351 450
7 117 773
8 529 620
9 734 129
10 15 647
11 494 376
12 11 119
13 839 924
14 407 807
15 204 189
16 657 839
17 114 455
18 41 221
19 971 755
20 498 772
21 990 950
22 395 55
23 681 987
24 142 752
25 362 928
26 299 343
27 507 682
28 871 533
29 696 648
30 332 155
EOF